language Essence 1.3

letting class be function(1 --> 1, 2 --> 1, 3 --> 1, 4 --> 1, 5 --> 1, 6 --> 1, 7 --> 1, 8 --> 1)
letting deck_length be 16
letting deck_width be 36
letting length be function(1 --> 14, 2 --> 16, 3 --> 4, 4 --> 5, 5 --> 5, 6 --> 1, 7 --> 6, 8 --> 3)
letting n_classes be 1
letting n_containers be 8
letting separation be function()
letting width be function(1 --> 8, 2 --> 20, 3 --> 1, 4 --> 9, 5 --> 7, 6 --> 1, 7 --> 9, 8 --> 1)
